Solver command line: ['C:\\Program Files\\IBM\\ILOG\\CPLEX_Studio2211\\cplex\\bin\\x64_win64\\cplex.exe']


Welcome to IBM(R) ILOG(R) CPLEX(R) Interactive Optimizer 22.1.1.0
  with Simplex, Mixed Integer & Barrier Optimizers
5725-A06 5725-A29 5724-Y48 5724-Y49 5724-Y54 5724-Y55 5655-Y21
Copyright IBM Corp. 1988, 2022.  All Rights Reserved.

Type 'help' for a list of available commands.
Type 'help' followed by a command name for more
information on commands.

CPLEX> Logfile 'cplex.log' closed.
Logfile 'C:\Users\wangy\Documents\GitHub\re_optimization\result_site_specific\tmp_f8v_xb_.cplex.log' open.
CPLEX> Problem 'C:\Users\wangy\Documents\GitHub\re_optimization\result_site_specific\tmpvrfk3122.pyomo.lp' read.
Read time = 0.33 sec. (9.13 ticks)
CPLEX> Problem name         : C:\Users\wangy\Documents\GitHub\re_optimization\result_site_specific\tmpvrfk3122.pyomo.lp
Objective sense      : Minimize
Variables            :   65769  [Nneg: 35068,  Free: 8792,  Binary: 9,
                                 Other: 21900]
Objective nonzeros   :      17
Linear constraints   :   87665  [Less: 46741,  Greater: 5,  Equal: 40919]
  Nonzeros           :  225093
  RHS nonzeros       :    3565

Variables            : Min LB: 0.000000         Max UB: 1.000000       
Objective nonzeros   : Min   : 1.000000         Max   : 1.000000       
Linear constraints   :
  Nonzeros           : Min   : 0.001335739      Max   : 100000.0       
  RHS nonzeros       : Min   : 0.1720000        Max   : 100000.0       
CPLEX> Version identifier: 22.1.1.0 | 2022-11-27 | 9160aff4d
Tried aggregator 3 times.
MIP Presolve eliminated 53463 rows and 33021 columns.
Aggregator did 10438 substitutions.
Reduced MIP has 23764 rows, 22310 columns, and 71150 nonzeros.
Reduced MIP has 5 binaries, 0 generals, 0 SOSs, and 0 indicators.
Presolve time = 0.25 sec. (225.67 ticks)
Found incumbent of value 362332.753378 after 0.38 sec. (316.61 ticks)
Probing time = 0.00 sec. (1.32 ticks)
Tried aggregator 1 time.
Detecting symmetries...
Reduced MIP has 23764 rows, 22310 columns, and 71150 nonzeros.
Reduced MIP has 5 binaries, 0 generals, 0 SOSs, and 0 indicators.
Presolve time = 0.05 sec. (45.50 ticks)
Probing time = 0.03 sec. (1.22 ticks)
MIP emphasis: balance optimality and feasibility.
MIP search method: dynamic search.
Parallel mode: deterministic, using up to 16 threads.
Root relaxation solution time = 1.81 sec. (893.46 ticks)

        Nodes                                         Cuts/
   Node  Left     Objective  IInf  Best Integer    Best Bound    ItCnt     Gap

*     0+    0                       362332.7534   -18540.4062           105.12%
      0     0    12467.2108     1   362332.7534    12467.2108       71   96.56%
*     0+    0                        14071.7354    12467.2108            11.40%
*     0+    0                        13533.9218    12467.2108             7.88%
      0     0        cutoff          13533.9218                    616    0.00%
Elapsed time = 2.69 sec. (1736.38 ticks, tree = 0.01 MB, solutions = 3)

Root node processing (before b&c):
  Real time             =    2.69 sec. (1739.55 ticks)
Parallel b&c, 16 threads:
  Real time             =    0.00 sec. (0.00 ticks)
  Sync time (average)   =    0.00 sec.
  Wait time (average)   =    0.00 sec.
                          ------------
Total (root+branch&cut) =    2.69 sec. (1739.55 ticks)

Solution pool: 3 solutions saved.

MIP - Integer optimal solution:  Objective =  1.3533921837e+04
Solution time =    2.69 sec.  Iterations = 616  Nodes = 0
Deterministic time = 1739.74 ticks  (647.22 ticks/sec)

CPLEX> Incumbent solution written to file 'C:\Users\wangy\Documents\GitHub\re_optimization\result_site_specific\tmp4ggn7ouw.cplex.sol'.
CPLEX> 
